p cnf 210 2552
1 2 3 4 5 6 7 0
8 9 10 11 12 13 14 0
15 16 17 18 19 20 21 0
22 23 24 25 26 27 28 0
29 30 31 32 33 34 35 0
36 37 38 39 40 41 42 0
43 44 45 46 47 48 49 0
50 51 52 53 54 55 56 0
57 58 59 60 61 62 63 0
64 65 66 67 68 69 70 0
71 72 73 74 75 76 77 0
78 79 80 81 82 83 84 0
85 86 87 88 89 90 91 0
92 93 94 95 96 97 98 0
99 100 101 102 103 104 105 0
106 107 108 109 110 111 112 0
113 114 115 116 117 118 119 0
120 121 122 123 124 125 126 0
127 128 129 130 131 132 133 0
134 135 136 137 138 139 140 0
141 142 143 144 145 146 147 0
148 149 150 151 152 153 154 0
155 156 157 158 159 160 161 0
162 163 164 165 166 167 168 0
169 170 171 172 173 174 175 0
176 177 178 179 180 181 182 0
183 184 185 186 187 188 189 0
190 191 192 193 194 195 196 0
197 198 199 200 201 202 203 0
204 205 206 207 208 209 210 0
-1 -2 0
-1 -3 0
-1 -4 0
-1 -5 0
-1 -6 0
-1 -7 0
-2 -3 0
-2 -4 0
-2 -5 0
-2 -6 0
-2 -7 0
-3 -4 0
-3 -5 0
-3 -6 0
-3 -7 0
-4 -5 0
-4 -6 0
-4 -7 0
-5 -6 0
-5 -7 0
-6 -7 0
-8 -9 0
-8 -10 0
-8 -11 0
-8 -12 0
-8 -13 0
-8 -14 0
-9 -10 0
-9 -11 0
-9 -12 0
-9 -13 0
-9 -14 0
-10 -11 0
-10 -12 0
-10 -13 0
-10 -14 0
-11 -12 0
-11 -13 0
-11 -14 0
-12 -13 0
-12 -14 0
-13 -14 0
-15 -16 0
-15 -17 0
-15 -18 0
-15 -19 0
-15 -20 0
-15 -21 0
-16 -17 0
-16 -18 0
-16 -19 0
-16 -20 0
-16 -21 0
-17 -18 0
-17 -19 0
-17 -20 0
-17 -21 0
-18 -19 0
-18 -20 0
-18 -21 0
-19 -20 0
-19 -21 0
-20 -21 0
-22 -23 0
-22 -24 0
-22 -25 0
-22 -26 0
-22 -27 0
-22 -28 0
-23 -24 0
-23 -25 0
-23 -26 0
-23 -27 0
-23 -28 0
-24 -25 0
-24 -26 0
-24 -27 0
-24 -28 0
-25 -26 0
-25 -27 0
-25 -28 0
-26 -27 0
-26 -28 0
-27 -28 0
-29 -30 0
-29 -31 0
-29 -32 0
-29 -33 0
-29 -34 0
-29 -35 0
-30 -31 0
-30 -32 0
-30 -33 0
-30 -34 0
-30 -35 0
-31 -32 0
-31 -33 0
-31 -34 0
-31 -35 0
-32 -33 0
-32 -34 0
-32 -35 0
-33 -34 0
-33 -35 0
-34 -35 0
-36 -37 0
-36 -38 0
-36 -39 0
-36 -40 0
-36 -41 0
-36 -42 0
-37 -38 0
-37 -39 0
-37 -40 0
-37 -41 0
-37 -42 0
-38 -39 0
-38 -40 0
-38 -41 0
-38 -42 0
-39 -40 0
-39 -41 0
-39 -42 0
-40 -41 0
-40 -42 0
-41 -42 0
-43 -44 0
-43 -45 0
-43 -46 0
-43 -47 0
-43 -48 0
-43 -49 0
-44 -45 0
-44 -46 0
-44 -47 0
-44 -48 0
-44 -49 0
-45 -46 0
-45 -47 0
-45 -48 0
-45 -49 0
-46 -47 0
-46 -48 0
-46 -49 0
-47 -48 0
-47 -49 0
-48 -49 0
-50 -51 0
-50 -52 0
-50 -53 0
-50 -54 0
-50 -55 0
-50 -56 0
-51 -52 0
-51 -53 0
-51 -54 0
-51 -55 0
-51 -56 0
-52 -53 0
-52 -54 0
-52 -55 0
-52 -56 0
-53 -54 0
-53 -55 0
-53 -56 0
-54 -55 0
-54 -56 0
-55 -56 0
-57 -58 0
-57 -59 0
-57 -60 0
-57 -61 0
-57 -62 0
-57 -63 0
-58 -59 0
-58 -60 0
-58 -61 0
-58 -62 0
-58 -63 0
-59 -60 0
-59 -61 0
-59 -62 0
-59 -63 0
-60 -61 0
-60 -62 0
-60 -63 0
-61 -62 0
-61 -63 0
-62 -63 0
-64 -65 0
-64 -66 0
-64 -67 0
-64 -68 0
-64 -69 0
-64 -70 0
-65 -66 0
-65 -67 0
-65 -68 0
-65 -69 0
-65 -70 0
-66 -67 0
-66 -68 0
-66 -69 0
-66 -70 0
-67 -68 0
-67 -69 0
-67 -70 0
-68 -69 0
-68 -70 0
-69 -70 0
-71 -72 0
-71 -73 0
-71 -74 0
-71 -75 0
-71 -76 0
-71 -77 0
-72 -73 0
-72 -74 0
-72 -75 0
-72 -76 0
-72 -77 0
-73 -74 0
-73 -75 0
-73 -76 0
-73 -77 0
-74 -75 0
-74 -76 0
-74 -77 0
-75 -76 0
-75 -77 0
-76 -77 0
-78 -79 0
-78 -80 0
-78 -81 0
-78 -82 0
-78 -83 0
-78 -84 0
-79 -80 0
-79 -81 0
-79 -82 0
-79 -83 0
-79 -84 0
-80 -81 0
-80 -82 0
-80 -83 0
-80 -84 0
-81 -82 0
-81 -83 0
-81 -84 0
-82 -83 0
-82 -84 0
-83 -84 0
-85 -86 0
-85 -87 0
-85 -88 0
-85 -89 0
-85 -90 0
-85 -91 0
-86 -87 0
-86 -88 0
-86 -89 0
-86 -90 0
-86 -91 0
-87 -88 0
-87 -89 0
-87 -90 0
-87 -91 0
-88 -89 0
-88 -90 0
-88 -91 0
-89 -90 0
-89 -91 0
-90 -91 0
-92 -93 0
-92 -94 0
-92 -95 0
-92 -96 0
-92 -97 0
-92 -98 0
-93 -94 0
-93 -95 0
-93 -96 0
-93 -97 0
-93 -98 0
-94 -95 0
-94 -96 0
-94 -97 0
-94 -98 0
-95 -96 0
-95 -97 0
-95 -98 0
-96 -97 0
-96 -98 0
-97 -98 0
-99 -100 0
-99 -101 0
-99 -102 0
-99 -103 0
-99 -104 0
-99 -105 0
-100 -101 0
-100 -102 0
-100 -103 0
-100 -104 0
-100 -105 0
-101 -102 0
-101 -103 0
-101 -104 0
-101 -105 0
-102 -103 0
-102 -104 0
-102 -105 0
-103 -104 0
-103 -105 0
-104 -105 0
-106 -107 0
-106 -108 0
-106 -109 0
-106 -110 0
-106 -111 0
-106 -112 0
-107 -108 0
-107 -109 0
-107 -110 0
-107 -111 0
-107 -112 0
-108 -109 0
-108 -110 0
-108 -111 0
-108 -112 0
-109 -110 0
-109 -111 0
-109 -112 0
-110 -111 0
-110 -112 0
-111 -112 0
-113 -114 0
-113 -115 0
-113 -116 0
-113 -117 0
-113 -118 0
-113 -119 0
-114 -115 0
-114 -116 0
-114 -117 0
-114 -118 0
-114 -119 0
-115 -116 0
-115 -117 0
-115 -118 0
-115 -119 0
-116 -117 0
-116 -118 0
-116 -119 0
-117 -118 0
-117 -119 0
-118 -119 0
-120 -121 0
-120 -122 0
-120 -123 0
-120 -124 0
-120 -125 0
-120 -126 0
-121 -122 0
-121 -123 0
-121 -124 0
-121 -125 0
-121 -126 0
-122 -123 0
-122 -124 0
-122 -125 0
-122 -126 0
-123 -124 0
-123 -125 0
-123 -126 0
-124 -125 0
-124 -126 0
-125 -126 0
-127 -128 0
-127 -129 0
-127 -130 0
-127 -131 0
-127 -132 0
-127 -133 0
-128 -129 0
-128 -130 0
-128 -131 0
-128 -132 0
-128 -133 0
-129 -130 0
-129 -131 0
-129 -132 0
-129 -133 0
-130 -131 0
-130 -132 0
-130 -133 0
-131 -132 0
-131 -133 0
-132 -133 0
-134 -135 0
-134 -136 0
-134 -137 0
-134 -138 0
-134 -139 0
-134 -140 0
-135 -136 0
-135 -137 0
-135 -138 0
-135 -139 0
-135 -140 0
-136 -137 0
-136 -138 0
-136 -139 0
-136 -140 0
-137 -138 0
-137 -139 0
-137 -140 0
-138 -139 0
-138 -140 0
-139 -140 0
-141 -142 0
-141 -143 0
-141 -144 0
-141 -145 0
-141 -146 0
-141 -147 0
-142 -143 0
-142 -144 0
-142 -145 0
-142 -146 0
-142 -147 0
-143 -144 0
-143 -145 0
-143 -146 0
-143 -147 0
-144 -145 0
-144 -146 0
-144 -147 0
-145 -146 0
-145 -147 0
-146 -147 0
-148 -149 0
-148 -150 0
-148 -151 0
-148 -152 0
-148 -153 0
-148 -154 0
-149 -150 0
-149 -151 0
-149 -152 0
-149 -153 0
-149 -154 0
-150 -151 0
-150 -152 0
-150 -153 0
-150 -154 0
-151 -152 0
-151 -153 0
-151 -154 0
-152 -153 0
-152 -154 0
-153 -154 0
-155 -156 0
-155 -157 0
-155 -158 0
-155 -159 0
-155 -160 0
-155 -161 0
-156 -157 0
-156 -158 0
-156 -159 0
-156 -160 0
-156 -161 0
-157 -158 0
-157 -159 0
-157 -160 0
-157 -161 0
-158 -159 0
-158 -160 0
-158 -161 0
-159 -160 0
-159 -161 0
-160 -161 0
-162 -163 0
-162 -164 0
-162 -165 0
-162 -166 0
-162 -167 0
-162 -168 0
-163 -164 0
-163 -165 0
-163 -166 0
-163 -167 0
-163 -168 0
-164 -165 0
-164 -166 0
-164 -167 0
-164 -168 0
-165 -166 0
-165 -167 0
-165 -168 0
-166 -167 0
-166 -168 0
-167 -168 0
-169 -170 0
-169 -171 0
-169 -172 0
-169 -173 0
-169 -174 0
-169 -175 0
-170 -171 0
-170 -172 0
-170 -173 0
-170 -174 0
-170 -175 0
-171 -172 0
-171 -173 0
-171 -174 0
-171 -175 0
-172 -173 0
-172 -174 0
-172 -175 0
-173 -174 0
-173 -175 0
-174 -175 0
-176 -177 0
-176 -178 0
-176 -179 0
-176 -180 0
-176 -181 0
-176 -182 0
-177 -178 0
-177 -179 0
-177 -180 0
-177 -181 0
-177 -182 0
-178 -179 0
-178 -180 0
-178 -181 0
-178 -182 0
-179 -180 0
-179 -181 0
-179 -182 0
-180 -181 0
-180 -182 0
-181 -182 0
-183 -184 0
-183 -185 0
-183 -186 0
-183 -187 0
-183 -188 0
-183 -189 0
-184 -185 0
-184 -186 0
-184 -187 0
-184 -188 0
-184 -189 0
-185 -186 0
-185 -187 0
-185 -188 0
-185 -189 0
-186 -187 0
-186 -188 0
-186 -189 0
-187 -188 0
-187 -189 0
-188 -189 0
-190 -191 0
-190 -192 0
-190 -193 0
-190 -194 0
-190 -195 0
-190 -196 0
-191 -192 0
-191 -193 0
-191 -194 0
-191 -195 0
-191 -196 0
-192 -193 0
-192 -194 0
-192 -195 0
-192 -196 0
-193 -194 0
-193 -195 0
-193 -196 0
-194 -195 0
-194 -196 0
-195 -196 0
-197 -198 0
-197 -199 0
-197 -200 0
-197 -201 0
-197 -202 0
-197 -203 0
-198 -199 0
-198 -200 0
-198 -201 0
-198 -202 0
-198 -203 0
-199 -200 0
-199 -201 0
-199 -202 0
-199 -203 0
-200 -201 0
-200 -202 0
-200 -203 0
-201 -202 0
-201 -203 0
-202 -203 0
-204 -205 0
-204 -206 0
-204 -207 0
-204 -208 0
-204 -209 0
-204 -210 0
-205 -206 0
-205 -207 0
-205 -208 0
-205 -209 0
-205 -210 0
-206 -207 0
-206 -208 0
-206 -209 0
-206 -210 0
-207 -208 0
-207 -209 0
-207 -210 0
-208 -209 0
-208 -210 0
-209 -210 0
-2 -167 0
-5 -166 0
-5 -168 0
-6 -165 0
-6 -167 0
-7 -167 0
-2 -168 0
-7 -163 0
-1 -163 0
-3 -168 0
-6 -163 0
-3 -162 0
-4 -162 0
-6 -162 0
-1 -167 0
-5 -167 0
-2 -166 0
-5 -162 0
-5 -164 0
-6 -168 0
-5 -163 0
-2 -163 0
-1 -164 0
-3 -165 0
-4 -167 0
-1 -168 0
-4 -164 0
-7 -166 0
-4 -166 0
-1 -166 0
-4 -165 0
-7 -162 0
-3 -167 0
-7 -168 0
-3 -163 0
-7 -165 0
-7 -164 0
-3 -164 0
-2 -165 0
-3 -166 0
-2 -164 0
-6 -166 0
-5 -165 0
-6 -164 0
-2 -177 0
-2 -178 0
-2 -179 0
-2 -176 0
-3 -176 0
-7 -182 0
-6 -180 0
-1 -177 0
-3 -181 0
-2 -182 0
-5 -177 0
-1 -182 0
-6 -182 0
-4 -179 0
-5 -176 0
-4 -182 0
-1 -176 0
-4 -176 0
-3 -178 0
-7 -180 0
-6 -181 0
-6 -176 0
-7 -179 0
-4 -181 0
-6 -178 0
-4 -178 0
-4 -180 0
-5 -182 0
-1 -180 0
-5 -179 0
-4 -177 0
-7 -181 0
-5 -181 0
-1 -179 0
-5 -180 0
-2 -181 0
-5 -178 0
-7 -177 0
-3 -179 0
-6 -177 0
-7 -176 0
-6 -179 0
-7 -178 0
-1 -181 0
-8 -97 0
-10 -95 0
-8 -98 0
-12 -92 0
-10 -94 0
-9 -94 0
-9 -92 0
-14 -98 0
-11 -94 0
-10 -93 0
-14 -93 0
-14 -96 0
-14 -97 0
-14 -95 0
-9 -97 0
-11 -93 0
-12 -95 0
-11 -98 0
-11 -95 0
-8 -92 0
-13 -94 0
-12 -98 0
-10 -97 0
-12 -97 0
-11 -97 0
-13 -92 0
-13 -93 0
-8 -96 0
-11 -96 0
-9 -98 0
-14 -94 0
-10 -92 0
-9 -95 0
-8 -95 0
-11 -92 0
-10 -98 0
-10 -96 0
-8 -94 0
-12 -93 0
-13 -96 0
-13 -97 0
-14 -92 0
-9 -96 0
-12 -96 0
-12 -152 0
-11 -148 0
-9 -150 0
-10 -154 0
-8 -151 0
-11 -152 0
-8 -152 0
-8 -149 0
-9 -151 0
-11 -153 0
-13 -149 0
-11 -151 0
-12 -148 0
-10 -148 0
-14 -153 0
-8 -150 0
-9 -153 0
-13 -153 0
-8 -153 0
-11 -149 0
-11 -150 0
-12 -154 0
-13 -150 0
-10 -153 0
-13 -152 0
-13 -148 0
-14 -152 0
-9 -149 0
-14 -154 0
-10 -152 0
-14 -148 0
-13 -151 0
-12 -153 0
-12 -150 0
-10 -149 0
-9 -152 0
-8 -148 0
-10 -151 0
-14 -150 0
-9 -148 0
-13 -154 0
-11 -154 0
-14 -151 0
-14 -149 0
-10 -208 0
-10 -206 0
-8 -209 0
-11 -206 0
-11 -205 0
-9 -205 0
-14 -204 0
-14 -206 0
-10 -205 0
-10 -209 0
-14 -209 0
-12 -206 0
-11 -208 0
-11 -209 0
-9 -210 0
-13 -204 0
-14 -208 0
-9 -208 0
-13 -205 0
-12 -209 0
-13 -208 0
-8 -205 0
-13 -206 0
-9 -204 0
-10 -207 0
-8 -210 0
-11 -210 0
-10 -204 0
-11 -207 0
-10 -210 0
-13 -209 0
-9 -209 0
-8 -207 0
-8 -206 0
-12 -204 0
-12 -210 0
-14 -210 0
-9 -207 0
-13 -210 0
-13 -207 0
-8 -204 0
-12 -208 0
-14 -207 0
-12 -207 0
-22 -102 0
-28 -99 0
-28 -101 0
-28 -100 0
-24 -105 0
-27 -100 0
-24 -104 0
-22 -99 0
-25 -103 0
-23 -100 0
-25 -105 0
-22 -105 0
-23 -104 0
-23 -101 0
-24 -103 0
-27 -104 0
-27 -105 0
-24 -101 0
-27 -101 0
-26 -99 0
-26 -100 0
-25 -99 0
-23 -103 0
-28 -105 0
-22 -101 0
-25 -100 0
-22 -100 0
-25 -102 0
-24 -100 0
-23 -102 0
-26 -104 0
-28 -104 0
-26 -101 0
-24 -102 0
-23 -105 0
-27 -102 0
-24 -99 0
-26 -105 0
-25 -104 0
-22 -103 0
-23 -99 0
-25 -101 0
-26 -103 0
-27 -99 0
-26 -124 0
-25 -120 0
-27 -121 0
-23 -121 0
-25 -122 0
-25 -126 0
-27 -124 0
-26 -121 0
-27 -125 0
-24 -126 0
-25 -124 0
-23 -122 0
-23 -120 0
-23 -126 0
-23 -123 0
-25 -123 0
-28 -125 0
-22 -123 0
-26 -126 0
-22 -126 0
-27 -120 0
-28 -123 0
-28 -124 0
-22 -121 0
-22 -125 0
-23 -125 0
-22 -124 0
-25 -125 0
-24 -120 0
-22 -120 0
-28 -126 0
-24 -121 0
-24 -122 0
-27 -126 0
-24 -123 0
-23 -124 0
-24 -125 0
-22 -122 0
-27 -123 0
-24 -124 0
-27 -122 0
-28 -121 0
-25 -121 0
-26 -123 0
-40 -125 0
-36 -120 0
-41 -124 0
-42 -126 0
-39 -120 0
-41 -125 0
-39 -125 0
-41 -123 0
-37 -121 0
-38 -122 0
-37 -126 0
-36 -125 0
-36 -124 0
-37 -124 0
-39 -121 0
-39 -122 0
-41 -120 0
-41 -126 0
-39 -126 0
-36 -122 0
-40 -123 0
-40 -121 0
-40 -126 0
-38 -126 0
-42 -123 0
-36 -121 0
-42 -121 0
-42 -125 0
-39 -124 0
-39 -123 0
-36 -126 0
-38 -124 0
-41 -122 0
-37 -125 0
-41 -121 0
-37 -120 0
-40 -124 0
-42 -120 0
-40 -122 0
-37 -123 0
-38 -123 0
-38 -120 0
-38 -125 0
-38 -121 0
-44 -68 0
-44 -70 0
-43 -67 0
-47 -66 0
-44 -65 0
-43 -66 0
-46 -66 0
-45 -69 0
-49 -70 0
-47 -67 0
-44 -69 0
-47 -70 0
-48 -66 0
-46 -67 0
-49 -66 0
-46 -69 0
-44 -64 0
-46 -70 0
-48 -69 0
-43 -64 0
-46 -68 0
-49 -68 0
-48 -67 0
-47 -69 0
-49 -67 0
-43 -65 0
-48 -68 0
-43 -69 0
-49 -65 0
-44 -67 0
-49 -64 0
-48 -70 0
-43 -70 0
-47 -64 0
-44 -66 0
-45 -66 0
-45 -64 0
-48 -64 0
-45 -65 0
-47 -68 0
-43 -68 0
-48 -65 0
-45 -67 0
-45 -68 0
-47 -82 0
-48 -82 0
-45 -84 0
-49 -82 0
-43 -80 0
-47 -80 0
-49 -84 0
-45 -82 0
-47 -78 0
-47 -83 0
-45 -81 0
-46 -81 0
-45 -83 0
-47 -84 0
-47 -79 0
-46 -80 0
-46 -78 0
-43 -84 0
-45 -80 0
-46 -82 0
-48 -79 0
-45 -79 0
-48 -81 0
-44 -84 0
-45 -78 0
-43 -81 0
-46 -83 0
-44 -83 0
-44 -81 0
-43 -83 0
-44 -79 0
-43 -82 0
-48 -83 0
-46 -79 0
-48 -78 0
-44 -78 0
-43 -78 0
-49 -81 0
-47 -81 0
-49 -78 0
-49 -83 0
-44 -80 0
-49 -79 0
-49 -80 0
-48 -110 0
-46 -107 0
-46 -108 0
-48 -106 0
-45 -106 0
-46 -109 0
-49 -109 0
-47 -110 0
-47 -106 0
-43 -106 0
-48 -112 0
-44 -106 0
-49 -108 0
-44 -110 0
-46 -110 0
-47 -111 0
-45 -110 0
-43 -109 0
-47 -112 0
-43 -107 0
-43 -108 0
-45 -108 0
-49 -111 0
-45 -107 0
-48 -111 0
-49 -107 0
-48 -107 0
-45 -111 0
-45 -112 0
-49 -112 0
-45 -109 0
-48 -109 0
-43 -110 0
-49 -110 0
-43 -111 0
-43 -112 0
-46 -112 0
-44 -112 0
-48 -108 0
-47 -108 0
-46 -106 0
-44 -108 0
-44 -107 0
-49 -106 0
-43 -115 0
-49 -114 0
-48 -113 0
-48 -117 0
-46 -116 0
-49 -116 0
-49 -119 0
-46 -119 0
-43 -113 0
-47 -113 0
-49 -115 0
-48 -118 0
-48 -119 0
-44 -115 0
-49 -113 0
-49 -118 0
-43 -119 0
-45 -113 0
-43 -116 0
-46 -118 0
-48 -114 0
-45 -116 0
-48 -116 0
-44 -116 0
-44 -118 0
-47 -116 0
-44 -113 0
-47 -115 0
-45 -119 0
-47 -119 0
-45 -117 0
-45 -118 0
-43 -118 0
-44 -114 0
-46 -117 0
-47 -117 0
-46 -115 0
-46 -113 0
-44 -117 0
-45 -114 0
-46 -114 0
-47 -114 0
-48 -115 0
-43 -117 0
-48 -181 0
-46 -179 0
-48 -177 0
-44 -179 0
-46 -176 0
-45 -179 0
-43 -179 0
-44 -181 0
-49 -182 0
-44 -177 0
-45 -176 0
-49 -177 0
-45 -177 0
-47 -182 0
-43 -176 0
-43 -182 0
-49 -181 0
-48 -182 0
-43 -181 0
-44 -178 0
-45 -182 0
-47 -181 0
-45 -178 0
-47 -180 0
-48 -178 0
-49 -180 0
-46 -180 0
-45 -181 0
-45 -180 0
-44 -176 0
-43 -180 0
-46 -181 0
-47 -178 0
-46 -182 0
-48 -176 0
-49 -176 0
-46 -177 0
-48 -179 0
-47 -179 0
-47 -177 0
-44 -182 0
-48 -180 0
-44 -180 0
-43 -177 0
-53 -84 0
-50 -80 0
-51 -83 0
-51 -78 0
-51 -80 0
-53 -83 0
-54 -78 0
-51 -82 0
-51 -81 0
-55 -80 0
-52 -83 0
-55 -79 0
-55 -83 0
-51 -84 0
-54 -79 0
-54 -80 0
-55 -84 0
-56 -84 0
-53 -82 0
-53 -79 0
-50 -78 0
-54 -82 0
-55 -81 0
-51 -79 0
-50 -83 0
-50 -82 0
-52 -82 0
-56 -82 0
-56 -80 0
-55 -82 0
-54 -84 0
-56 -78 0
-52 -81 0
-52 -79 0
-53 -81 0
-53 -78 0
-50 -81 0
-56 -79 0
-50 -79 0
-54 -83 0
-54 -81 0
-50 -84 0
-52 -84 0
-55 -78 0
-56 -141 0
-52 -144 0
-53 -141 0
-54 -146 0
-56 -145 0
-56 -142 0
-53 -145 0
-54 -145 0
-52 -146 0
-50 -145 0
-54 -142 0
-54 -143 0
-50 -144 0
-51 -142 0
-52 -143 0
-50 -147 0
-53 -143 0
-56 -147 0
-54 -141 0
-55 -147 0
-50 -142 0
-55 -146 0
-55 -144 0
-53 -146 0
-56 -146 0
-51 -146 0
-51 -145 0
-55 -142 0
-56 -143 0
-51 -147 0
-55 -141 0
-52 -141 0
-53 -147 0
-52 -145 0
-52 -147 0
-50 -143 0
-53 -142 0
-55 -143 0
-50 -146 0
-53 -144 0
-54 -147 0
-51 -144 0
-55 -145 0
-56 -144 0
-51 -168 0
-56 -163 0
-53 -162 0
-52 -165 0
-56 -168 0
-53 -164 0
-54 -162 0
-50 -168 0
-54 -166 0
-52 -164 0
-50 -163 0
-50 -164 0
-52 -163 0
-51 -162 0
-53 -166 0
-52 -162 0
-54 -168 0
-55 -163 0
-56 -166 0
-51 -163 0
-53 -163 0
-53 -165 0
-53 -168 0
-51 -165 0
-56 -165 0
-55 -165 0
-56 -167 0
-52 -167 0
-55 -168 0
-51 -167 0
-55 -164 0
-56 -162 0
-51 -164 0
-54 -165 0
-55 -166 0
-51 -166 0
-55 -167 0
-50 -167 0
-52 -168 0
-55 -162 0
-50 -165 0
-52 -166 0
-53 -167 0
-54 -167 0
-62 -68 0
-59 -65 0
-58 -66 0
-61 -70 0
-62 -67 0
-60 -65 0
-60 -70 0
-62 -70 0
-58 -69 0
-60 -67 0
-59 -68 0
-63 -65 0
-61 -69 0
-60 -69 0
-57 -64 0
-60 -66 0
-63 -67 0
-60 -68 0
-61 -67 0
-62 -64 0
-57 -66 0
-58 -65 0
-59 -69 0
-57 -67 0
-57 -70 0
-61 -66 0
-59 -66 0
-62 -66 0
-57 -65 0
-63 -69 0
-63 -64 0
-58 -70 0
-60 -64 0
-59 -70 0
-61 -64 0
-59 -67 0
-59 -64 0
-62 -65 0
-63 -66 0
-58 -68 0
-63 -68 0
-61 -68 0
-57 -68 0
-57 -69 0
-57 -208 0
-60 -207 0
-59 -209 0
-59 -208 0
-58 -204 0
-59 -206 0
-61 -209 0
-57 -209 0
-57 -206 0
-59 -207 0
-60 -204 0
-58 -210 0
-62 -207 0
-62 -210 0
-58 -209 0
-63 -209 0
-57 -207 0
-61 -207 0
-62 -206 0
-61 -206 0
-61 -208 0
-63 -207 0
-57 -204 0
-57 -205 0
-59 -204 0
-60 -206 0
-58 -207 0
-63 -210 0
-63 -206 0
-58 -206 0
-63 -208 0
-61 -205 0
-61 -204 0
-58 -208 0
-59 -210 0
-61 -210 0
-57 -210 0
-62 -209 0
-60 -210 0
-60 -209 0
-59 -205 0
-62 -208 0
-63 -205 0
-63 -204 0
-67 -82 0
-67 -84 0
-69 -80 0
-66 -82 0
-65 -81 0
-69 -83 0
-64 -78 0
-66 -79 0
-68 -79 0
-69 -82 0
-69 -84 0
-68 -81 0
-66 -81 0
-70 -81 0
-69 -79 0
-68 -82 0
-69 -81 0
-68 -83 0
-64 -84 0
-70 -83 0
-66 -80 0
-65 -80 0
-70 -84 0
-68 -84 0
-66 -78 0
-65 -82 0
-66 -84 0
-66 -83 0
-65 -83 0
-70 -80 0
-65 -79 0
-64 -80 0
-70 -82 0
-70 -79 0
-64 -81 0
-67 -80 0
-68 -80 0
-65 -84 0
-69 -78 0
-67 -79 0
-64 -82 0
-70 -78 0
-64 -83 0
-67 -78 0
-64 -91 0
-70 -90 0
-68 -87 0
-68 -88 0
-70 -91 0
-69 -87 0
-70 -85 0
-67 -91 0
-64 -88 0
-66 -85 0
-66 -88 0
-69 -88 0
-67 -90 0
-64 -86 0
-66 -89 0
-70 -87 0
-65 -90 0
-68 -91 0
-67 -87 0
-64 -89 0
-70 -89 0
-65 -88 0
-68 -85 0
-66 -91 0
-69 -85 0
-65 -87 0
-66 -90 0
-64 -85 0
-70 -86 0
-64 -90 0
-67 -89 0
-69 -86 0
-70 -88 0
-68 -86 0
-69 -91 0
-67 -88 0
-66 -86 0
-69 -89 0
-68 -89 0
-65 -86 0
-65 -89 0
-65 -85 0
-64 -87 0
-67 -86 0
-67 -142 0
-66 -143 0
-70 -141 0
-66 -142 0
-64 -145 0
-69 -147 0
-68 -141 0
-66 -147 0
-70 -143 0
-67 -147 0
-66 -146 0
-67 -143 0
-69 -143 0
-65 -143 0
-66 -144 0
-64 -143 0
-65 -142 0
-68 -142 0
-68 -145 0
-64 -144 0
-69 -142 0
-70 -142 0
-70 -144 0
-69 -141 0
-68 -146 0
-67 -146 0
-70 -146 0
-67 -141 0
-66 -141 0
-64 -141 0
-65 -146 0
-68 -144 0
-64 -146 0
-65 -144 0
-65 -147 0
-70 -145 0
-64 -147 0
-69 -146 0
-67 -144 0
-68 -143 0
-69 -145 0
-64 -142 0
-65 -145 0
-70 -147 0
-75 -134 0
-77 -135 0
-73 -136 0
-75 -139 0
-71 -137 0
-74 -138 0
-74 -137 0
-72 -140 0
-72 -136 0
-76 -140 0
-75 -135 0
-73 -139 0
-77 -137 0
-76 -139 0
-72 -138 0
-75 -137 0
-71 -139 0
-72 -139 0
-72 -134 0
-77 -138 0
-74 -134 0
-75 -138 0
-71 -134 0
-76 -138 0
-73 -140 0
-77 -140 0
-76 -135 0
-75 -136 0
-77 -136 0
-72 -135 0
-76 -137 0
-74 -139 0
-72 -137 0
-71 -136 0
-74 -140 0
-77 -134 0
-77 -139 0
-74 -136 0
-75 -140 0
-76 -134 0
-73 -138 0
-74 -135 0
-73 -135 0
-73 -134 0
-75 -162 0
-73 -166 0
-71 -164 0
-77 -163 0
-75 -166 0
-72 -162 0
-77 -168 0
-77 -162 0
-74 -166 0
-76 -164 0
-77 -166 0
-75 -167 0
-73 -168 0
-76 -168 0
-76 -165 0
-75 -165 0
-76 -162 0
-77 -164 0
-71 -166 0
-71 -165 0
-71 -167 0
-77 -165 0
-73 -164 0
-71 -163 0
-73 -167 0
-76 -167 0
-72 -166 0
-75 -164 0
-73 -163 0
-74 -163 0
-74 -165 0
-72 -164 0
-71 -168 0
-72 -167 0
-76 -166 0
-74 -168 0
-74 -164 0
-71 -162 0
-77 -167 0
-75 -163 0
-74 -167 0
-73 -162 0
-72 -165 0
-72 -163 0
-83 -98 0
-81 -96 0
-81 -93 0
-78 -94 0
-82 -94 0
-78 -97 0
-80 -96 0
-82 -93 0
-83 -97 0
-81 -98 0
-83 -96 0
-82 -96 0
-82 -95 0
-78 -92 0
-79 -96 0
-84 -93 0
-80 -94 0
-79 -92 0
-80 -97 0
-81 -95 0
-80 -98 0
-82 -98 0
-84 -97 0
-83 -95 0
-79 -98 0
-78 -93 0
-83 -93 0
-79 -93 0
-79 -95 0
-84 -98 0
-78 -98 0
-84 -96 0
-82 -97 0
-79 -94 0
-84 -94 0
-78 -95 0
-80 -95 0
-81 -94 0
-83 -94 0
-82 -92 0
-79 -97 0
-80 -93 0
-81 -97 0
-84 -92 0
-79 -163 0
-82 -162 0
-79 -165 0
-84 -166 0
-84 -167 0
-80 -165 0
-83 -162 0
-80 -166 0
-81 -163 0
-78 -168 0
-80 -164 0
-78 -167 0
-80 -167 0
-82 -167 0
-83 -166 0
-78 -166 0
-81 -167 0
-83 -163 0
-82 -166 0
-80 -162 0
-82 -163 0
-84 -168 0
-83 -164 0
-82 -165 0
-84 -163 0
-78 -164 0
-80 -168 0
-78 -162 0
-84 -162 0
-79 -162 0
-79 -164 0
-81 -164 0
-78 -163 0
-79 -168 0
-79 -166 0
-79 -167 0
-81 -165 0
-81 -166 0
-83 -165 0
-81 -162 0
-82 -164 0
-83 -167 0
-78 -165 0
-81 -168 0
-83 -199 0
-81 -199 0
-80 -198 0
-79 -200 0
-81 -202 0
-81 -203 0
-79 -199 0
-82 -200 0
-84 -201 0
-78 -201 0
-82 -199 0
-78 -198 0
-83 -203 0
-81 -197 0
-83 -202 0
-78 -197 0
-82 -197 0
-79 -201 0
-84 -202 0
-81 -200 0
-82 -198 0
-84 -199 0
-79 -203 0
-78 -200 0
-79 -198 0
-80 -197 0
-80 -201 0
-81 -201 0
-84 -197 0
-81 -198 0
-80 -203 0
-83 -201 0
-83 -200 0
-80 -202 0
-82 -201 0
-80 -200 0
-84 -200 0
-83 -197 0
-83 -198 0
-78 -202 0
-80 -199 0
-84 -203 0
-82 -202 0
-82 -203 0
-89 -120 0
-85 -120 0
-91 -123 0
-87 -122 0
-90 -126 0
-87 -121 0
-85 -123 0
-91 -125 0
-89 -122 0
-85 -122 0
-89 -125 0
-88 -125 0
-91 -122 0
-91 -120 0
-89 -126 0
-85 -121 0
-89 -124 0
-87 -120 0
-87 -125 0
-88 -122 0
-86 -122 0
-87 -123 0
-89 -123 0
-91 -124 0
-87 -126 0
-86 -126 0
-88 -123 0
-87 -124 0
-86 -124 0
-90 -122 0
-85 -124 0
-86 -120 0
-85 -126 0
-86 -123 0
-90 -120 0
-91 -126 0
-86 -121 0
-90 -125 0
-88 -121 0
-88 -120 0
-90 -124 0
-88 -126 0
-85 -125 0
-88 -124 0
-87 -192 0
-89 -194 0
-86 -191 0
-90 -194 0
-85 -190 0
-88 -194 0
-89 -193 0
-88 -192 0
-85 -191 0
-89 -191 0
-89 -192 0
-89 -195 0
-87 -190 0
-86 -190 0
-86 -196 0
-88 -193 0
-91 -196 0
-86 -195 0
-91 -193 0
-88 -195 0
-90 -190 0
-85 -193 0
-91 -195 0
-90 -191 0
-88 -191 0
-91 -194 0
-90 -196 0
-87 -196 0
-87 -193 0
-91 -192 0
-91 -190 0
-90 -195 0
-87 -194 0
-87 -195 0
-87 -191 0
-88 -196 0
-91 -191 0
-86 -192 0
-88 -190 0
-85 -192 0
-85 -194 0
-85 -196 0
-90 -192 0
-86 -194 0
-88 -205 0
-85 -204 0
-86 -208 0
-87 -207 0
-87 -210 0
-85 -207 0
-90 -210 0
-89 -209 0
-89 -210 0
-87 -209 0
-91 -205 0
-85 -209 0
-91 -209 0
-86 -207 0
-87 -206 0
-89 -206 0
-86 -204 0
-86 -206 0
-87 -204 0
-88 -204 0
-89 -205 0
-89 -208 0
-87 -208 0
-85 -205 0
-90 -205 0
-91 -208 0
-88 -209 0
-88 -206 0
-85 -206 0
-87 -205 0
-90 -207 0
-88 -208 0
-90 -204 0
-91 -206 0
-85 -208 0
-90 -209 0
-90 -206 0
-86 -205 0
-85 -210 0
-91 -210 0
-89 -207 0
-86 -210 0
-91 -207 0
-88 -210 0
-98 -148 0
-98 -150 0
-97 -153 0
-93 -149 0
-98 -153 0
-96 -152 0
-98 -154 0
-97 -151 0
-98 -149 0
-93 -152 0
-92 -154 0
-97 -154 0
-96 -150 0
-95 -150 0
-94 -152 0
-94 -149 0
-94 -148 0
-92 -148 0
-95 -148 0
-95 -149 0
-94 -154 0
-94 -153 0
-92 -152 0
-93 -154 0
-97 -150 0
-98 -152 0
-93 -150 0
-96 -153 0
-96 -151 0
-97 -152 0
-96 -154 0
-94 -151 0
-95 -152 0
-96 -148 0
-96 -149 0
-93 -148 0
-93 -151 0
-92 -153 0
-97 -148 0
-95 -153 0
-93 -153 0
-98 -151 0
-94 -150 0
-97 -149 0
-97 -181 0
-92 -180 0
-95 -181 0
-93 -179 0
-94 -179 0
-96 -181 0
-98 -176 0
-92 -179 0
-95 -176 0
-97 -180 0
-94 -180 0
-92 -181 0
-98 -182 0
-98 -177 0
-95 -179 0
-93 -180 0
-97 -178 0
-94 -178 0
-92 -182 0
-96 -177 0
-96 -176 0
-95 -182 0
-96 -182 0
-98 -180 0
-93 -177 0
-95 -180 0
-92 -176 0
-93 -176 0
-93 -182 0
-94 -181 0
-96 -179 0
-97 -182 0
-93 -181 0
-96 -178 0
-94 -182 0
-98 -179 0
-95 -178 0
-94 -177 0
-92 -178 0
-92 -177 0
-97 -176 0
-97 -177 0
-96 -180 0
-98 -181 0
-99 -116 0
-104 -117 0
-105 -113 0
-104 -113 0
-99 -115 0
-104 -114 0
-101 -115 0
-102 -117 0
-103 -113 0
-101 -116 0
-99 -117 0
-103 -114 0
-104 -119 0
-100 -119 0
-99 -119 0
-105 -115 0
-104 -116 0
-100 -114 0
-101 -113 0
-100 -115 0
-105 -119 0
-103 -117 0
-100 -113 0
-105 -114 0
-101 -119 0
-101 -114 0
-100 -116 0
-101 -117 0
-99 -114 0
-104 -118 0
-102 -115 0
-103 -119 0
-102 -113 0
-99 -118 0
-105 -117 0
-105 -116 0
-103 -116 0
-103 -118 0
-103 -115 0
-102 -119 0
-102 -114 0
-104 -115 0
-101 -118 0
-102 -116 0
-103 -178 0
-100 -178 0
-105 -177 0
-99 -179 0
-104 -180 0
-103 -177 0
-103 -176 0
-105 -181 0
-104 -179 0
-101 -181 0
-100 -182 0
-105 -178 0
-105 -176 0
-99 -181 0
-105 -182 0
-102 -180 0
-104 -181 0
-103 -179 0
-102 -182 0
-101 -178 0
-105 -179 0
-102 -176 0
-99 -182 0
-103 -180 0
-102 -177 0
-99 -180 0
-103 -182 0
-100 -179 0
-102 -179 0
-100 -176 0
-104 -182 0
-102 -181 0
-99 -176 0
-103 -181 0
-101 -180 0
-104 -178 0
-101 -176 0
-100 -177 0
-102 -178 0
-100 -180 0
-104 -177 0
-101 -179 0
-105 -180 0
-99 -177 0
-107 -117 0
-108 -117 0
-110 -114 0
-111 -117 0
-106 -118 0
-109 -115 0
-111 -116 0
-106 -116 0
-107 -115 0
-107 -119 0
-108 -113 0
-109 -117 0
-106 -113 0
-110 -115 0
-110 -116 0
-111 -113 0
-112 -115 0
-111 -119 0
-112 -119 0
-109 -113 0
-109 -114 0
-111 -114 0
-109 -119 0
-112 -113 0
-112 -118 0
-106 -119 0
-111 -118 0
-112 -114 0
-110 -113 0
-112 -117 0
-108 -116 0
-110 -119 0
-108 -119 0
-110 -118 0
-107 -114 0
-109 -118 0
-112 -116 0
-106 -117 0
-106 -115 0
-111 -115 0
-108 -114 0
-108 -115 0
-110 -117 0
-107 -118 0
-110 -120 0
-109 -125 0
-110 -121 0
-106 -126 0
-107 -122 0
-112 -120 0
-111 -121 0
-108 -123 0
-107 -124 0
-108 -122 0
-106 -124 0
-108 -126 0
-108 -120 0
-108 -121 0
-112 -121 0
-112 -122 0
-112 -124 0
-111 -125 0
-110 -124 0
-112 -123 0
-107 -125 0
-110 -123 0
-112 -126 0
-106 -125 0
-107 -123 0
-111 -126 0
-109 -121 0
-111 -124 0
-109 -122 0
-109 -120 0
-106 -123 0
-111 -120 0
-106 -122 0
-109 -126 0
-109 -123 0
-107 -126 0
-110 -125 0
-110 -122 0
-109 -124 0
-106 -120 0
-111 -122 0
-110 -126 0
-107 -120 0
-106 -121 0
-119 -137 0
-119 -138 0
-117 -137 0
-113 -137 0
-119 -134 0
-118 -140 0
-119 -136 0
-114 -140 0
-114 -135 0
-114 -134 0
-116 -138 0
-115 -135 0
-113 -138 0
-115 -134 0
-116 -134 0
-119 -139 0
-114 -136 0
-113 -139 0
-115 -140 0
-118 -138 0
-118 -135 0
-118 -139 0
-117 -136 0
-117 -140 0
-115 -137 0
-116 -140 0
-116 -136 0
-115 -138 0
-117 -134 0
-113 -135 0
-113 -140 0
-114 -139 0
-116 -139 0
-118 -137 0
-115 -139 0
-118 -136 0
-118 -134 0
-116 -135 0
-117 -139 0
-114 -137 0
-119 -140 0
-117 -135 0
-119 -135 0
-117 -138 0
-126 -172 0
-121 -175 0
-123 -175 0
-122 -174 0
-123 -173 0
-124 -175 0
-121 -171 0
-124 -174 0
-124 -170 0
-125 -170 0
-121 -170 0
-126 -175 0
-123 -172 0
-122 -173 0
-123 -174 0
-122 -170 0
-120 -175 0
-121 -173 0
-121 -169 0
-120 -173 0
-126 -173 0
-126 -171 0
-122 -172 0
-123 -171 0
-120 -169 0
-126 -169 0
-124 -169 0
-125 -171 0
-124 -171 0
-123 -169 0
-122 -171 0
-124 -173 0
-125 -169 0
-121 -172 0
-126 -170 0
-121 -174 0
-120 -171 0
-125 -175 0
-125 -172 0
-125 -174 0
-125 -173 0
-126 -174 0
-120 -172 0
-120 -174 0
-125 -178 0
-122 -179 0
-120 -180 0
-125 -180 0
-124 -177 0
-122 -176 0
-125 -179 0
-126 -176 0
-120 -181 0
-121 -178 0
-123 -176 0
-124 -181 0
-126 -182 0
-121 -179 0
-121 -176 0
-124 -178 0
-126 -180 0
-123 -182 0
-124 -176 0
-122 -182 0
-126 -178 0
-120 -182 0
-125 -181 0
-122 -178 0
-126 -179 0
-123 -179 0
-125 -177 0
-126 -177 0
-120 -176 0
-120 -178 0
-120 -177 0
-124 -180 0
-125 -176 0
-123 -181 0
-122 -177 0
-124 -182 0
-123 -178 0
-121 -177 0
-123 -177 0
-121 -181 0
-126 -181 0
-122 -181 0
-125 -182 0
-123 -180 0
-127 -136 0
-129 -139 0
-127 -139 0
-128 -139 0
-128 -136 0
-132 -136 0
-131 -135 0
-129 -136 0
-130 -137 0
-127 -134 0
-130 -140 0
-131 -136 0
-130 -136 0
-129 -135 0
-130 -135 0
-129 -140 0
-129 -134 0
-133 -135 0
-133 -137 0
-133 -139 0
-127 -138 0
-129 -137 0
-129 -138 0
-128 -137 0
-132 -140 0
-127 -135 0
-128 -135 0
-131 -138 0
-132 -134 0
-132 -138 0
-130 -139 0
-133 -140 0
-133 -138 0
-131 -139 0
-131 -134 0
-127 -140 0
-128 -134 0
-132 -137 0
-131 -140 0
-133 -134 0
-133 -136 0
-127 -137 0
-128 -138 0
-132 -139 0
-140 -146 0
-139 -142 0
-135 -141 0
-136 -143 0
-137 -145 0
-138 -145 0
-134 -144 0
-135 -142 0
-134 -142 0
-138 -144 0
-139 -146 0
-140 -147 0
-136 -144 0
-138 -147 0
-134 -147 0
-138 -141 0
-139 -143 0
-137 -142 0
-135 -143 0
-138 -142 0
-137 -141 0
-138 -146 0
-139 -145 0
-139 -144 0
-139 -147 0
-137 -144 0
-140 -141 0
-140 -145 0
-136 -147 0
-135 -145 0
-135 -144 0
-139 -141 0
-136 -142 0
-140 -144 0
-135 -146 0
-134 -143 0
-137 -146 0
-137 -143 0
-137 -147 0
-136 -146 0
-140 -143 0
-134 -146 0
-140 -142 0
-134 -141 0
-144 -186 0
-143 -185 0
-144 -189 0
-141 -183 0
-141 -187 0
-144 -188 0
-143 -186 0
-147 -183 0
-141 -188 0
-143 -184 0
-145 -184 0
-147 -188 0
-144 -183 0
-147 -189 0
-143 -183 0
-147 -187 0
-146 -186 0
-146 -189 0
-147 -184 0
-142 -187 0
-142 -183 0
-142 -185 0
-144 -187 0
-143 -189 0
-146 -183 0
-145 -187 0
-144 -184 0
-145 -183 0
-146 -187 0
-146 -188 0
-142 -188 0
-146 -184 0
-142 -189 0
-142 -186 0
-142 -184 0
-146 -185 0
-141 -186 0
-141 -189 0
-145 -188 0
-141 -184 0
-145 -185 0
-143 -188 0
-143 -187 0
-145 -189 0
-151 -205 0
-150 -204 0
-150 -208 0
-149 -208 0
-154 -209 0
-148 -206 0
-149 -210 0
-152 -210 0
-150 -210 0
-151 -208 0
-148 -209 0
-151 -210 0
-154 -204 0
-152 -207 0
-151 -209 0
-153 -206 0
-153 -204 0
-152 -209 0
-151 -206 0
-152 -204 0
-150 -207 0
-150 -209 0
-153 -210 0
-149 -207 0
-148 -210 0
-152 -205 0
-152 -208 0
-151 -207 0
-150 -206 0
-149 -206 0
-148 -208 0
-153 -207 0
-154 -206 0
-154 -205 0
-152 -206 0
-154 -208 0
-153 -209 0
-151 -204 0
-148 -207 0
-154 -207 0
-154 -210 0
-148 -204 0
-148 -205 0
-149 -205 0
-155 -176 0
-160 -179 0
-155 -179 0
-160 -176 0
-155 -181 0
-160 -177 0
-158 -181 0
-159 -178 0
-161 -181 0
-156 -182 0
-155 -182 0
-159 -179 0
-161 -182 0
-156 -179 0
-158 -180 0
-157 -181 0
-159 -176 0
-161 -179 0
-155 -177 0
-156 -180 0
-158 -176 0
-159 -182 0
-159 -180 0
-161 -177 0
-157 -177 0
-158 -177 0
-158 -179 0
-156 -181 0
-161 -180 0
-157 -179 0
-157 -182 0
-155 -178 0
-156 -176 0
-155 -180 0
-158 -178 0
-159 -177 0
-161 -178 0
-157 -176 0
-160 -178 0
-157 -180 0
-159 -181 0
-156 -178 0
-160 -182 0
-158 -182 0
